synthesis/R_UFDT/list/sum/smt2/1_assisted.smt2
(set-logic UFDT)

(declare-datatype nat ((s (s0 nat)) (zero)))
(declare-datatype lst ((nil) (cons (cons0 nat) (cons1 lst))))

(define-fun-rec add ((x nat) (y nat)) nat
  (match y ((zero x)
           ((s y0) (s (add x y0))))))

(define-fun-rec mult ((x nat) (y nat)) nat
  (match y ((zero zero)
           ((s y0) (add (mult x y0) x)))))

(define-fun-rec half ((x nat)) nat
  (match x ((zero zero)
           ((s x0) (match x0 ((zero zero)
                             ((s x1) (s (half x1)))))))))

(define-fun-rec sum ((x lst)) nat
  (match x ((nil zero) 
           ((cons x0 x1) (add (sum x1) x0)))))

; LEMMA
(assert-claim (forall ((n nat)) (= (half (mult (s n) (s (s n)))) (add (half (mult n (s n))) (s n)))))

; SPECIFICATION
(assert-synth ((x nat)) ((y lst)) (= (sum y) (half (mult x (s x)))))




